p tw 40 84
0 1
0 6
0 14
1 39
1 37
2 3
2 21
2 12
2 14
2 38
2 27
2 8
3 13
3 24
3 36
3 25
3 14
4 5
4 8
4 25
4 15
5 12
5 27
5 26
5 24
6 7
6 10
6 13
6 26
6 33
7 14
7 9
7 12
7 38
7 18
8 9
8 17
8 26
8 29
8 35
8 10
8 36
10 11
10 17
11 12
11 36
11 37
12 23
12 34
13 24
14 15
14 19
14 28
14 39
14 25
16 17
16 27
16 24
16 28
17 20
17 19
18 19
18 25
21 38
21 27
22 23
22 37
23 28
24 25
24 39
24 29
25 30
25 37
27 30
27 29
28 29
29 36
30 36
30 33
30 32
31 32
31 35
31 37
32 38
